DIMENSION: 8
EDGE_WEIGHT_TYPE: EXPLICIT
EDGE_WEIGHT_FORMAT: FULL_MATRIX
EDGE_WEIGHT_SECTION:
32767 8 32767 32767 47 22 32767 32767 
8 32767 32767 47 65 32767 1 46 
32767 32767 32767 32767 32767 73 80 42 
32767 47 32767 32767 74 55 70 29 
47 65 32767 74 32767 17 70 32767 
22 32767 73 55 17 32767 32767 15 
32767 1 80 70 70 32767 32767 51 
32767 46 42 29 32767 15 51 32767 
EOF